3 3 2
25 0 52 2 90 0 61 1 27 2 17 0 85 2 17 1 41 2 38 1 11 0 6 1 78 0 95 1 11 2 29 0 0 2 16 0 22 1 21 0 47 2 24 1 29 0 23 1 25 2 95 
25 0 68 1 6 2 69 0 5 2 48 1 91 0 16 1 35 2 14 1 77 0 45 2 92 1 27 2 80 0 95 1 51 2 1 1 73 2 30 0 37 2 18 1 96 2 46 0 88 1 58 
25 0 3 2 26 1 10 2 63 0 15 2 50 0 8 2 45 0 32 2 7 0 64 1 21 0 43 1 91 0 58 2 1 0 59 2 2 0 60 1 39 2 20 1 98 0 90 1 39 0 5 

-------------
